
n_vnfs = 10;     % number of nodes in the matrix
start = 1; % start node
target = 10;   % end node
M = 9;     % TOP cost
n_domains = 3;
params =  [1,1,0];


domain_activated = [
              1,
              0,
              1
              ];

link_weights = array2d(1..n_vnfs, 1..n_vnfs, [
          0, 1, 1, 3, 3, 3, 4, 4, 4, 4, % 1
          1, 0, 1, 3, 3, 3, 4, 4, 4, 4, % 2
          1, 1, 0, 3, 3, 3, 4, 4, 4, 4, % 3
          3, 3, 3, 0, 1, 1, 3, 3, 3, 3, % 4
          3, 3, 3, 1, 0, 1, 3, 3, 3, 3, % 5
          3, 3, 3, 1, 1, 0, 3, 3, 3, 3, % 6
          4, 4, 4, 3, 3, 3, 0, 1, 1, 1, % 7
          4, 4, 4, 3, 3, 3, 1, 0, 1, 1, % 8
          4, 4, 4, 3, 3, 3, 1, 1, 0, 1, % 9
          4, 4, 4, 3, 3, 3, 1, 1, 1, 0  % 10
          ]);

% 1 ID(nat), 2 Type(nat), 3 Terminating(bool, DPI), 4 Path Sense(bool), 
% 5 Mirrored(bool, WANA), 6 Weight(Nat), 7 Active(bool), 8 domain_id
vnfs =  array2d(1..n_vnfs, 1..8, [
       1, 3, 0, 0, 0, 0, 1, 1,
       2, 7, 0, 1, 1, 1, 1, 1,
       3, 6, 0, 0, 0, 2, 1, 1,
       4, 7, 0, 1, 1, 1, 1, 2,
       5, 5, 1, 0, 0, 1, 1, 2,
       6, 5, 1, 0, 0, 2, 1, 2,
       7, 7, 0, 1, 1, 1, 1, 3,
       8, 5, 1, 0, 0, 2, 1, 3,
       9, 6, 0, 0, 0, 1, 1, 3,
      10, 3, 0, 0, 0, 0, 1, 3
]);